(define-fun-rec
  v5
  ((x Int) (y Int) (z Int)) Int (ite (<= x 0) z (v5 (- x 1) y z)))
(define-fun-rec
  u5
  ((x Int) (y Int) (z Int)) Int
  (ite (<= x 0) y (* (u5 (- x 1) y z) (v5 (- x 1) y z))))
(define-fun
  j5
  () Int (+ 1 2))
(define-fun
  h5
  ((x Int)) Int (div x 2))
(define-fun
  w5
  ((x Int)) Int (u5 (h5 x) 1 j5))
(define-fun
  h1
  ((x Int)) Int x)
(define-fun
  h0
  ((x Int)) Int x)
(define-fun
  g5
  ((x Int) (y Int)) Int y)
(define-fun
  g4
  ((x Int)) Int (div x 2))
(define-fun
  g2
  ((x Int)) Int (mod x 2))
(define-fun
  g1
  ((x Int)) Int (+ (+ x x) x))
(define-funs-rec
  ((v1
    ((x Int) (y Int) (z Int)) Int)
   (u1
    ((x Int) (y Int) (z Int)) Int))
  ((ite (<= x 0) z (g1 (u1 (- x 1) y z)))
   (ite (<= x 0) y (v1 (- x 1) y z))))
(define-fun
  w1
  ((x Int)) Int (u1 x 1 1))
(define-fun
  g0
  ((x Int)) Int x)
(define-fun
  f4
  ((x Int)) Int (+ x x))
(define-fun-rec
  u4
  ((x Int) (y Int)) Int (ite (<= x 0) y (f4 (u4 (- x 1) y))))
(define-fun
  v4
  ((x Int)) Int (u4 (g4 x) 1))
(define-fun
  f3
  ((x Int)) Int (* x x))
(define-fun-rec
  u3
  ((x Int) (y Int)) Int (ite (<= x 0) y (f3 (u3 (- x 1) y))))
(define-fun
  v3
  ((x Int)) Int (u3 1 (v4 x)))
(define-fun
  f2
  ((x Int)) Int (+ x x))
(define-fun-rec
  u2
  ((x Int) (y Int)) Int (ite (<= x 0) y (f2 (u2 (- x 1) y))))
(define-fun
  v2
  ((x Int)) Int (u2 (g2 x) (v3 x)))
(define-fun
  fast
  ((x Int)) Int (div (- (+ (* (div (v2 x) (+ 1 2)) 2) 1) (w5 x)) 2))
(define-fun
  f1
  ((x Int) (y Int)) Int y)
(define-fun
  f0
  ((x Int) (y Int)) Int (+ (+ x y) y))
(define-funs-rec
  ((u0
    ((x Int) (y Int) (z Int)) Int)
   (v0
    ((x Int) (y Int) (z Int)) Int))
  ((ite (<= x 0) y (f0 (u0 (- x 1) y z) (v0 (- x 1) y z)))
   (ite (<= x 0) z (u0 (- x 1) y z))))
(define-fun
  w0
  ((x Int)) Int (u0 x 1 0))
(define-fun
  small
  ((x Int)) Int (div (- (w0 x) (w1 x)) 2))
(assert-not
  (forall ((c Int)) (or (not (>= c 0)) (= (small c) (fast c)))))
